Welcome to the CBC MILP Solver 
Version: 2.10.12 
Build Date: Aug 20 2024 

command line - /opt/homebrew/bin/cbc computational_data/real_data/lp/wine_trial_015_margin.lp seconds 10.0 solve solu computational_data/real_data/solutions/wine_trial_015_margin.sol (default strategy 1)
 CoinLpIO::readLp(): Maximization problem reformulated as minimization
Coin0009I Switching back to maximization to get correct duals etc
seconds was changed from 1e+100 to 10
Continuous objective value is 36.0066 - 0.00 seconds
Cgl0003I 0 fixed, 0 tightened bounds, 89 strengthened rows, 0 substitutions
Cgl0003I 0 fixed, 0 tightened bounds, 82 strengthened rows, 0 substitutions
Cgl0003I 0 fixed, 0 tightened bounds, 69 strengthened rows, 0 substitutions
Cgl0003I 0 fixed, 0 tightened bounds, 63 strengthened rows, 0 substitutions
Cgl0003I 0 fixed, 0 tightened bounds, 32 strengthened rows, 0 substitutions
Cgl0003I 0 fixed, 0 tightened bounds, 23 strengthened rows, 0 substitutions
Cgl0003I 0 fixed, 0 tightened bounds, 16 strengthened rows, 0 substitutions
Cgl0003I 0 fixed, 0 tightened bounds, 6 strengthened rows, 0 substitutions
Cgl0003I 0 fixed, 0 tightened bounds, 3 strengthened rows, 0 substitutions
Cgl0004I processed model has 86 rows, 34 columns (34 integer (33 of which binary)) and 772 elements
Cbc0038I Initial state - 10 integers unsatisfied sum - 3.33333
Cbc0038I Pass   1: suminf.    0.00000 (0) obj. 36.0065 iterations 11
Cbc0038I Solution found of 36.0065
Cbc0038I Cleaned solution of 36.0065
Cbc0038I Before mini branch and bound, 23 integers at bound fixed and 0 continuous
Cbc0038I Full problem 86 rows 34 columns, reduced to 25 rows 9 columns
Cbc0038I Mini branch and bound did not improve solution (0.01 seconds)
Cbc0038I Round again with cutoff of 36.0065
Cbc0038I Reduced cost fixing fixed 10 variables on major pass 2
Cbc0038I Pass   2: suminf.    2.17436 (7) obj. 36.0065 iterations 6
Cbc0038I Pass   3: suminf.    1.82564 (5) obj. 36.0065 iterations 2
Cbc0038I Pass   4: suminf.    2.00000 (5) obj. 36.0065 iterations 14
Cbc0038I Pass   5: suminf.    2.00000 (6) obj. 36.0065 iterations 12
Cbc0038I Pass   6: suminf.    2.00000 (4) obj. 36.0065 iterations 8
Cbc0038I Pass   7: suminf.    2.17436 (7) obj. 36.0065 iterations 6
Cbc0038I Pass   8: suminf.    1.82564 (5) obj. 36.0065 iterations 10
Cbc0038I Pass   9: suminf.    1.83810 (5) obj. 36.0065 iterations 1
Cbc0038I Pass  10: suminf.    1.83810 (5) obj. 36.0065 iterations 5
Cbc0038I Pass  11: suminf.    2.00000 (4) obj. 36.0065 iterations 12
Cbc0038I Pass  12: suminf.    2.00000 (6) obj. 36.0065 iterations 6
Cbc0038I Pass  13: suminf.    1.83810 (5) obj. 36.0065 iterations 3
Cbc0038I Pass  14: suminf.    2.08095 (6) obj. 36.0065 iterations 8
Cbc0038I Pass  15: suminf.    2.00000 (6) obj. 36.0065 iterations 7
Cbc0038I Pass  16: suminf.    2.00000 (4) obj. 36.0065 iterations 9
Cbc0038I Pass  17: suminf.    2.00000 (4) obj. 36.0065 iterations 6
Cbc0038I Pass  18: suminf.    2.30222 (9) obj. 36.0065 iterations 18
Cbc0038I Pass  19: suminf.    2.00000 (5) obj. 36.0065 iterations 9
Cbc0038I Pass  20: suminf.    2.00000 (6) obj. 36.0065 iterations 6
Cbc0038I Pass  21: suminf.    2.00000 (4) obj. 36.0065 iterations 8
Cbc0038I Pass  22: suminf.    2.00000 (7) obj. 36.0065 iterations 11
Cbc0038I Pass  23: suminf.    2.65128 (7) obj. 36.0065 iterations 12
Cbc0038I Pass  24: suminf.    2.65128 (7) obj. 36.0065 iterations 3
Cbc0038I Pass  25: suminf.    2.00000 (5) obj. 36.0065 iterations 16
Cbc0038I Pass  26: suminf.    2.82564 (8) obj. 36.0065 iterations 13
Cbc0038I Pass  27: suminf.    2.17436 (7) obj. 36.0065 iterations 4
Cbc0038I Pass  28: suminf.    1.82564 (5) obj. 36.0065 iterations 6
Cbc0038I Pass  29: suminf.    2.00000 (5) obj. 36.0065 iterations 13
Cbc0038I Pass  30: suminf.    2.00000 (6) obj. 36.0065 iterations 6
Cbc0038I Pass  31: suminf.    2.00000 (4) obj. 36.0065 iterations 6
Cbc0038I No solution found this major pass
Cbc0038I Before mini branch and bound, 13 integers at bound fixed and 0 continuous
Cbc0038I Full problem 86 rows 34 columns, reduced to 66 rows 20 columns
Cbc0038I Mini branch and bound did not improve solution (0.01 seconds)
Cbc0038I After 0.01 seconds - Feasibility pump exiting with objective of 36.0065 - took 0.01 seconds
Cbc0012I Integer solution of 36.006473 found by feasibility pump after 0 iterations and 0 nodes (0.01 seconds)
Cbc0038I Full problem 86 rows 34 columns, reduced to 25 rows 9 columns
Cbc0031I 1 added rows had average density of 10
Cbc0013I At root node, 10 cuts changed objective from 36.00649 to 36.006473 in 1 passes
Cbc0014I Cut generator 0 (Probing) - 1 row cuts average 7.0 elements, 1 column cuts (1 active)  in 0.000 seconds - new frequency is 1
Cbc0014I Cut generator 1 (Gomory) - 1 row cuts average 10.0 elements, 0 column cuts (0 active)  in 0.000 seconds - new frequency is 1
Cbc0014I Cut generator 2 (Knapsack) - 0 row cuts average 0.0 elements, 0 column cuts (0 active)  in 0.000 seconds - new frequency is -100
Cbc0014I Cut generator 3 (Clique) - 0 row cuts average 0.0 elements, 0 column cuts (0 active)  in 0.000 seconds - new frequency is -100
Cbc0014I Cut generator 4 (MixedIntegerRounding2) - 0 row cuts average 0.0 elements, 0 column cuts (0 active)  in 0.000 seconds - new frequency is -100
Cbc0014I Cut generator 5 (FlowCover) - 0 row cuts average 0.0 elements, 0 column cuts (0 active)  in 0.000 seconds - new frequency is -100
Cbc0014I Cut generator 6 (TwoMirCuts) - 4 row cuts average 16.5 elements, 0 column cuts (0 active)  in 0.000 seconds - new frequency is -100
Cbc0014I Cut generator 7 (ZeroHalf) - 4 row cuts average 7.0 elements, 0 column cuts (0 active)  in 0.000 seconds - new frequency is -100
Cbc0001I Search completed - best objective 36.006473, took 0 iterations and 0 nodes (0.02 seconds)
Cbc0035I Maximum depth 0, 10 variables fixed on reduced cost
Cuts at root node changed objective from 36.0065 to 36.0065
Probing was tried 1 times and created 2 cuts of which 0 were active after adding rounds of cuts (0.000 seconds)
Gomory was tried 1 times and created 1 cuts of which 0 were active after adding rounds of cuts (0.000 seconds)
Knapsack was tried 1 times and created 0 cuts of which 0 were active after adding rounds of cuts (0.000 seconds)
Clique was tried 1 times and created 0 cuts of which 0 were active after adding rounds of cuts (0.000 seconds)
MixedIntegerRounding2 was tried 1 times and created 0 cuts of which 0 were active after adding rounds of cuts (0.000 seconds)
FlowCover was tried 1 times and created 0 cuts of which 0 were active after adding rounds of cuts (0.000 seconds)
TwoMirCuts was tried 1 times and created 4 cuts of which 0 were active after adding rounds of cuts (0.000 seconds)
ZeroHalf was tried 1 times and created 4 cuts of which 0 were active after adding rounds of cuts (0.000 seconds)

Result - Optimal solution found

Objective value:                36.00647300
Enumerated nodes:               0
Total iterations:               0
Time (CPU seconds):             0.02
Time (Wallclock seconds):       0.02

Total time (CPU seconds):       0.02   (Wallclock seconds):       0.02

